55 52 41 28 20 11 29 79 82 86 90 97 6 17 93 95 43 44 21 73 56 25 22 99 1 27 16 33 91 30 46 36 87 24 37 18 76 19 3 80 89 7 51 49 31 65 0 53 96 98 9 48 78 74 70 92 47 72 84 32 10 57 62 66 2 15 13 83 23 85 8 58 4 50 68 88 12 59 34 61 69 77 42 75 26 54 38 67 71 45 14 94 60 64 81 5 63 40 39 35 

